p edge 38 228
e 1 7
e 1 7
e 1 9
e 1 11
e 1 15
e 1 28
e 2 1
e 2 4
e 2 20
e 2 23
e 2 24
e 2 35
e 3 2
e 3 17
e 3 21
e 3 29
e 3 29
e 3 30
e 4 5
e 4 12
e 4 17
e 4 19
e 4 24
e 4 30
e 5 12
e 5 28
e 5 29
e 5 32
e 5 35
e 5 35
e 6 1
e 6 2
e 6 12
e 6 20
e 6 32
e 6 38
e 7 2
e 7 18
e 7 22
e 7 23
e 7 33
e 7 38
e 8 2
e 8 3
e 8 14
e 8 18
e 8 19
e 8 38
e 9 1
e 9 3
e 9 6
e 9 13
e 9 21
e 9 28
e 10 4
e 10 7
e 10 13
e 10 23
e 10 23
e 10 34
e 11 4
e 11 25
e 11 27
e 11 31
e 11 34
e 11 36
e 12 3
e 12 4
e 12 5
e 12 24
e 12 29
e 12 38
e 13 1
e 13 18
e 13 19
e 13 24
e 13 27
e 13 32
e 14 6
e 14 24
e 14 26
e 14 27
e 14 36
e 14 37
e 15 3
e 15 10
e 15 23
e 15 24
e 15 25
e 15 30
e 16 14
e 16 17
e 16 20
e 16 23
e 16 25
e 16 32
e 17 11
e 17 14
e 17 15
e 17 24
e 17 25
e 17 29
e 18 2
e 18 11
e 18 13
e 18 17
e 18 27
e 18 29
e 19 3
e 19 15
e 19 20
e 19 25
e 19 26
e 19 29
e 20 4
e 20 8
e 20 9
e 20 21
e 20 34
e 20 38
e 21 8
e 21 9
e 21 13
e 21 27
e 21 28
e 21 32
e 22 4
e 22 15
e 22 18
e 22 36
e 22 37
e 22 38
e 23 1
e 23 6
e 23 21
e 23 29
e 23 30
e 23 38
e 24 6
e 24 15
e 24 16
e 24 17
e 24 21
e 24 27
e 25 14
e 25 16
e 25 28
e 25 29
e 25 31
e 25 33
e 26 2
e 26 10
e 26 12
e 26 16
e 26 19
e 26 38
e 27 6
e 27 14
e 27 22
e 27 25
e 27 31
e 27 36
e 28 4
e 28 15
e 28 22
e 28 24
e 28 24
e 28 37
e 29 12
e 29 22
e 29 24
e 29 31
e 29 31
e 29 38
e 30 6
e 30 13
e 30 18
e 30 32
e 30 36
e 30 37
e 31 7
e 31 8
e 31 9
e 31 9
e 31 14
e 31 33
e 32 5
e 32 9
e 32 17
e 32 20
e 32 23
e 32 36
e 33 5
e 33 6
e 33 10
e 33 14
e 33 19
e 33 22
e 34 3
e 34 5
e 34 7
e 34 7
e 34 26
e 34 37
e 35 8
e 35 8
e 35 9
e 35 15
e 35 26
e 35 38
e 36 5
e 36 8
e 36 17
e 36 21
e 36 21
e 36 38
e 37 1
e 37 5
e 37 9
e 37 19
e 37 24
e 37 25
e 38 7
e 38 10
e 38 12
e 38 18
e 38 21
e 38 37
